Minimize
  - 58 y_0 - 65 y_1 - 115 y_2 - 60 y_3 - 67 y_4 - 95 y_5 - 42 y_6 - 86 y_8
   - 98 y_9 - 60 y_10 - 4 y_11 - 28 y_12 - 106 y_13 - 53 y_14 - 63 y_15
   - 4 y_16 - 111 y_17 - 60 y_18 - 69 y_19 - 64 y_20 - 20 y_21 - 95 y_22
   - 91 y_23 - 84 y_24 - 19 y_25 - 35 y_26 - 74 y_27 - 113 y_28 - 41 y_29
   - 57 y_30 - 84 y_31 - 81 y_32 - 89 y_33 - 128 y_34 - 31 y_35 - 101 y_36
   - 63 y_37 - 57 y_38 - 56 y_39 - 56 y_40 - y_41 - 67 y_42 - 26 y_43
   - 91 y_44 - 113 y_45 - 21 y_46 - 113 y_47 - 68 y_48 - 51 y_49 - 84 y_50
   - 77 y_51 - 60 y_52 - 93 y_53 - 69 y_54 - 129 y_55 - 74 y_56 - 46 y_57
   - 123 y_58 - 98 y_59 - 112 y_60 - 82 y_61 - 99 y_62 - 75 y_63 - 81 y_64
   - 32 y_65 - 50 y_66 - 110 y_67 - 115 y_68 - 127 y_69 - 103 y_70
   - 103 y_71 - 77 y_72 - 101 y_73 - 66 y_74 - 42 y_75 - 21 y_76 - 61 y_77
   - 52 y_78 - 16 y_79 - 61 y_80 - 108 y_81 - 45 y_82 - 37 y_83 - 17 y_84
   - 49 y_85 - 95 y_86 - 60 y_87 - 69 y_88 - 35 y_89 - 76 y_90 - 29 y_91
   - 43 y_92 - 67 y_93 - 87 y_94 - 77 y_95 - 66 y_96 - 75 y_97 - 83 y_98
   - 27 y_99 + 6818 Constant
Subject To
 c_0: y_49 = 1
 c_1_0: y_0 + y_30 >= 1
 c_1_1: y_1 + y_18 + y_48 >= 1
 c_1_2: y_2 + y_45 + y_68 >= 1
 c_1_3: y_3 + y_77 + y_80 >= 1
 c_1_4: y_4 >= 1
 c_1_5: y_5 + y_62 >= 1
 c_1_6: y_6 >= 1
 c_1_7: y_7 + y_11 + y_16 + y_41 >= 1
 c_1_8: y_8 >= 1
 c_1_9: y_9 + y_86 >= 1
 c_1_10: y_10 + y_87 >= 1
 c_1_11: y_7 + y_11 + y_16 + y_41 >= 1
 c_1_12: y_12 + y_43 + y_91 >= 1
 c_1_13: y_13 >= 1
 c_1_14: y_14 >= 1
 c_1_15: y_15 + y_77 + y_93 >= 1
 c_1_16: y_7 + y_11 + y_16 + y_41 >= 1
 c_1_17: y_17 >= 1
 c_1_18: y_1 + y_18 + y_20 >= 1
 c_1_19: y_19 + y_20 + y_48 >= 1
 c_1_20: y_18 + y_19 + y_20 + y_74 >= 1
 c_1_21: y_21 + y_46 + y_76 >= 1
 c_1_22: y_22 >= 1
 c_1_23: y_23 >= 1
 c_1_24: y_24 >= 1
 c_1_25: y_25 + y_84 >= 1
 c_1_26: y_26 >= 1
 c_1_27: y_27 + y_51 + y_63 >= 1
 c_1_28: y_28 >= 1
 c_1_29: y_29 >= 1
 c_1_30: y_0 + y_30 + y_38 >= 1
 c_1_31: y_31 >= 1
 c_1_32: y_32 >= 1
 c_1_33: y_33 >= 1
 c_1_34: y_34 + y_58 >= 1
 c_1_35: y_35 + y_65 >= 1
 c_1_36: y_36 >= 1
 c_1_37: y_37 + y_52 >= 1
 c_1_38: y_30 + y_38 >= 1
 c_1_39: y_39 + y_78 + y_87 >= 1
 c_1_40: y_40 >= 1
 c_1_41: y_7 + y_11 + y_16 + y_41 >= 1
 c_1_42: y_42 >= 1
 c_1_43: y_12 + y_43 + y_91 >= 1
 c_1_44: y_44 >= 1
 c_1_45: y_2 + y_45 + y_68 >= 1
 c_1_46: y_21 + y_46 + y_76 >= 1
 c_1_47: y_47 + y_81 >= 1
 c_1_48: y_1 + y_19 + y_48 >= 1
 c_1_49: y_49 + y_66 + y_85 >= 1
 c_1_50: y_50 >= 1
 c_1_51: y_27 + y_51 + y_61 + y_63 >= 1
 c_1_52: y_37 + y_52 >= 1
 c_1_53: y_53 >= 1
 c_1_54: y_54 >= 1
 c_1_55: y_55 >= 1
 c_1_56: y_56 >= 1
 c_1_57: y_57 >= 1
 c_1_58: y_34 + y_58 >= 1
 c_1_59: y_59 + y_73 + y_86 >= 1
 c_1_60: y_60 + y_67 >= 1
 c_1_61: y_51 + y_61 >= 1
 c_1_62: y_5 + y_62 >= 1
 c_1_63: y_27 + y_51 + y_63 >= 1
 c_1_64: y_64 >= 1
 c_1_65: y_35 + y_65 >= 1
 c_1_66: y_49 + y_66 + y_82 >= 1
 c_1_67: y_60 + y_67 >= 1
 c_1_68: y_2 + y_45 + y_68 >= 1
 c_1_69: y_69 >= 1
 c_1_70: y_70 >= 1
 c_1_71: y_71 >= 1
 c_1_72: y_72 + y_95 >= 1
 c_1_73: y_59 + y_73 >= 1
 c_1_74: y_20 + y_74 >= 1
 c_1_75: y_75 >= 1
 c_1_76: y_21 + y_46 + y_76 >= 1
 c_1_77: y_3 + y_15 + y_77 >= 1
 c_1_78: y_39 + y_78 >= 1
 c_1_79: y_79 >= 1
 c_1_80: y_3 + y_80 + y_96 >= 1
 c_1_81: y_47 + y_81 >= 1
 c_1_82: y_66 + y_82 + y_92 >= 1
 c_1_83: y_83 >= 1
 c_1_84: y_25 + y_84 >= 1
 c_1_85: y_49 + y_85 >= 1
 c_1_86: y_9 + y_59 + y_86 >= 1
 c_1_87: y_10 + y_39 + y_87 >= 1
 c_1_88: y_88 >= 1
 c_1_89: y_89 >= 1
 c_1_90: y_90 >= 1
 c_1_91: y_12 + y_43 + y_91 >= 1
 c_1_92: y_82 + y_92 >= 1
 c_1_93: y_15 + y_93 >= 1
 c_1_94: y_94 + y_98 >= 1
 c_1_95: y_72 + y_95 >= 1
 c_1_96: y_80 + y_96 >= 1
 c_1_97: y_97 >= 1
 c_1_98: y_94 + y_98 >= 1
 c_1_99: y_99 >= 1
Bounds
 Constant = 1
Binaries
 y_0 y_1 y_2 y_3 y_4 y_5 y_6 y_7 y_8 y_9 y_10 y_11 y_12 y_13 y_14 y_15 y_16
 y_17 y_18 y_19 y_20 y_21 y_22 y_23 y_24 y_25 y_26 y_27 y_28 y_29 y_30 y_31
 y_32 y_33 y_34 y_35 y_36 y_37 y_38 y_39 y_40 y_41 y_42 y_43 y_44 y_45 y_46
 y_47 y_48 y_49 y_50 y_51 y_52 y_53 y_54 y_55 y_56 y_57 y_58 y_59 y_60 y_61
 y_62 y_63 y_64 y_65 y_66 y_67 y_68 y_69 y_70 y_71 y_72 y_73 y_74 y_75 y_76
 y_77 y_78 y_79 y_80 y_81 y_82 y_83 y_84 y_85 y_86 y_87 y_88 y_89 y_90 y_91
 y_92 y_93 y_94 y_95 y_96 y_97 y_98 y_99
End
